Memorial Tunnel 100MW
Full_Fire in T-J-5   [33-34-1]
No Fans
Impulse Fans: 
T-B-2               JF-2
T-N                 Wind
T-D                 JF-2
T-E-3               JF-2

10        9         2023
 0         1         1         0         2         5         0         0
 46        45        0         46        0                   1         0
 0         0         0         2         0         2         0         0
41        32        29.92     41        32        41        32        0
165       0         0         0         0         0         1         1
 1         1         2         1         0
 2         2         3         1         0
 3         3         4         1         0
 4         4         5         1         0
 5         5         6         1         0
 6         6         7         1         0
 7         7         8         1         0
 8         8         9         1         0
 9         9         10        1         0
 10        10        11        1         0
 11        11        12        1         0
 12        12        13        1         0
 13        13        14        1         0
 14        14        15        1         0
 15        15        16        1         0
 16        16        17        1         0
 17        17        18        1         0
 18        18        19        1         0
 19        19        20        1         0
 20        20        21        2         0
 21        21        22        1         0
 22        22        23        1         0
 23        23        24        1         0
 24        24        25        1         0
 25        25        26        1         0
 26        26        27        1         0
 27        27        28        1         0
 28        28        29        1         0
 29        29        30        1         0
 30        30        31        1         0
 31        31        32        1         0
 32        32        33        1         0
 33        33        34        1         0
 34        34        35        1         0
 35        35        36        1         0
 36        36        37        1         0
 37        37        38        1         0
 38        38        39        1         0
 39        39        40        1         0
 40        40        41        1         0
 41        41        42        1         0
 42        42        43        1         0
 43        43        44        1         0
 44        44        45        1         0
 45        45        46        1         0
 1         1        T-A
70.01     396.8     -2.24     0
86        0         0         0         0.        0.        0.        0.
0         0         0         0         0.        0.        0.        0.
0         0         0         0         0         1         0
 1         1         52        52        43
 2         1        T-A-2
70.01     641.5     -2.24     0
96.8      0         0         0         0.        0.        0.        0.
0         0         0         0         0.        0.        0.        0.
0         0         0         0         0         1         0
 1         1         52        52        43
 3         1        T-A-3
70.01     641.5     -2.24     0
96.8      0         0         0         0.        0.        0.        0.
0         0         0         0         0.        0.        0.        0.
10.6      10.6      0         0         0         1         0
 1         1         52        52        43
 4         1        T-B
100.96    641.5     -3.23     0
96.8      0         0         0         0.        0.        0.        0.
0         0         0         0         0.        0.        0.        0.
0         0         0         0         0         1         0
 1         1         52        52        43
 5         10       T-B-2
22.01     641.5     -0.7      0
96.8      0         0         0         0.        0.        0.        0.
0         0         0         0         0.        0.        0.        0.
0         0         0         0         0         1         0
 1         1         52        52        43
 6         1        T-B-3
70.01     641.5     -2.24     0
96.8      0         0         0         0.        0.        0.        0.
0         0         0         0         0.        0.        0.        0.
0         0         0         0         0         1         0
 1         1         52        52        43
 7         1        T-C
70.01     641.5     -2.24     0
96.8      0         0         0         0.        0.        0.        0.
0         0         0         0         0.        0.        0.        0.
0         0         0         0         0         1         0
 1         1         52        52        43
 8         1        T-C-2
70.01     641.5     -2.24     0
96.8      0         0         0         0.        0.        0.        0.
0         0         0         0         0.        0.        0.        0.
0         0         0         0         0         1         0
 1         1         52        52        43
 9         1        T-C-3
78.99     641.5     -2.53     0
96.8      0         0         0         0.        0.        0.        0.
0         0         0         0         0.        0.        0.        0.
0         0         0         0         0         1         0
 1         1         52        52        43
 10        10       T-D
22.01     641.5     -0.7      0
96.8      0         0         0         0.        0.        0.        0.
0         0         0         0         0.        0.        0.        0.
0         0         0         0         0         1         0
 1         1         52        52        43
 11        1        T-D-2
70.01     641.5     -2.24     0
96.8      0         0         0         0.        0.        0.        0.
0         0         0         0         0.        0.        0.        0.
0         0         0         0         0         1         0
 1         1         52        52        43
 12        1        T-D-3
70.01     641.5     -2.24     0
96.8      0         0         0         0.        0.        0.        0.
0         0         0         0         0.        0.        0.        0.
0         0         0         0         0         1         0
 1         1         52        52        43
 13        1        T-E
70.01     641.5     -2.24     0
96.8      0         0         0         0.        0.        0.        0.
0         0         0         0         0.        0.        0.        0.
0         0         0         0         0         1         0
 1         1         52        52        43
 14        1        T-E-2
79.95     641.5     -2.56     0
96.8      0         0         0         0.        0.        0.        0.
0         0         0         0         0.        0.        0.        0.
0         0         0         0         0         1         0
 1         1         52        52        43
 15        10       T-E-3
22.01     641.5     -0.7      0
96.8      0         0         0         0.        0.        0.        0.
0         0         0         0         0.        0.        0.        0.
0         0         0         0         0         1         0
 1         1         52        52        43
 16        1        T-F
70.01     641.5     -2.24     0
96.8      0         0         0         0.        0.        0.        0.
0         0         0         0         0.        0.        0.        0.
0         0         0         0         0         1         0
 1         1         52        52        43
 17        1        T-F-2
70.01     641.5     -2.24     0
96.8      0         0         0         0.        0.        0.        0.
0         0         0         0         0.        0.        0.        0.
0         0         0         0         0         1         0
 1         1         52        52        43
 18        1        T-F-3
70.01     641.5     -2.24     0
96.8      0         0         0         0.        0.        0.        0.
0         0         0         0         0.        0.        0.        0.
0         0         0         0         0         1         0
 1         1         52        52        43
 19        1        T-G
78.97     641.5     -2.53     0
96.8      0         0         0         0.        0.        0.        0.
0         0         0         0         0.        0.        0.        0.
0         0         0         0         0         1         0
 1         1         52        52        43
 20        1        T-G-2
22.01     641.5     -0.7      0
96.8      0         0         0         0.        0.        0.        0.
0         0         0         0         0.        0.        0.        0.
0         0         0         0         0         1         0
 1         1         52        52        43
 21        1        T-G-2-b
48        641.5     -1.54     0
96.8      0         0         0         0.        0.        0.        0.
0         0         0         0         0.        0.        0.        0.
0         0         0         0         0         1         0
 1         1         52        52        43
 22        1        T-G-3
70.01     641.5     -2.24     0
96.8      0         0         0         0.        0.        0.        0.
0         0         0         0         0.        0.        0.        0.
0         0         0         0         0         1         0
 1         1         52        52        43
 23        1        T-H
70.01     641.5     -2.24     0
96.8      0         0         0         0.        0.        0.        0.
0         0         0         0         0.        0.        0.        0.
0         0         0         0         0         1         0
 1         1         52        52        43
 24        1        T-H-2
70.01     641.5     -2.24     0
96.8      0         0         0         0.        0.        0.        0.
0         0         0         0         0.        0.        0.        0.
0         0         0         0         0         1         0
 1         1         52        52        43
 25        1        T-H-3
30.97     641.5     -0.99     0
96.8      0         0         0         0.        0.        0.        0.
0         0         0         0         0.        0.        0.        0.
0         0         0         0         0         1         0
 1         1         52        52        43
 26        1        T-I
22.01     641.5     -0.7      0
96.8      0         0         0         0.        0.        0.        0.
0         0         0         0         0.        0.        0.        0.
0         0         0         0         0         1         0
 1         1         52        52        43
 27        1        T-I-2
70.01     641.5     -2.24     0
96.8      0         0         0         0.        0.        0.        0.
0         0         0         0         0.        0.        0.        0.
0         0         0         0         0         1         0
 1         1         52        52        43
 28        1        T-I-3
70.01     641.5     -2.24     0
96.8      0         0         0         0.        0.        0.        0.
0         0         0         0         0.        0.        0.        0.
0         0         0         0         0         1         0
 1         1         52        52        43
 29        1        T-I-4
70.01     641.5     -2.24     0
96.8      0         0         0         0.        0.        0.        0.
0         0         0         0         0.        0.        0.        0.
0         0         0         0         0         1         0
 1         1         52        52        43
 30        1        T-J
67.81     641.5     -2.17     0
96.8      0         0         0         0.        0.        0.        0.
0         0         0         0         0.        0.        0.        0.
0         0         0         0         0         1         0
 1         1         52        52        43
 31        1        T-J-2
22.01     641.5     -0.7      0
96.8      0         0         0         0.        0.        0.        0.
0         0         0         0         0.        0.        0.        0.
0         0         0         0         0         1         0
 1         1         52        52        43
 32        1        T-J-3
70.01     641.5     -2.24     0
96.8      0         0         0         0.        0.        0.        0.
0         0         0         0         0.        0.        0.        0.
0         0         0         0         0         1         0
 1         1         52        52        43
 33        1        T-J-4
70.01     641.5     -2.24     0
96.8      0         0         0         0.        0.        0.        0.
0         0         0         0         0.        0.        0.        0.
0         0         0         0         0         1         0
 1         1         52        52        43
 34        1        T-J-5
70.01     641.5     -2.24     1
96.8      0         0         0         0.        0.        0.        0.
0         0         0         0         0.        0.        0.        0.
0         0         0         0         0         1         0
 1         1         52        52        43
 35        1        T-K
70.01     641.5     -2.24     0
96.8      0         0         0         0.        0.        0.        0.
0         0         0         0         0.        0.        0.        0.
0         0         0         0         0         1         0
 1         1         52        52        43
 36        1        T-K-2
31.92     641.5     -1.02     0
96.8      0         0         0         0.        0.        0.        0.
0         0         0         0         0.        0.        0.        0.
0         0         0         0         0         1         0
 1         1         52        52        43
 37        1        T-K-3
22.01     641.5     -0.7      0
96.8      0         0         0         0.        0.        0.        0.
0         0         0         0         0.        0.        0.        0.
0         0         0         0         0         1         0
 1         1         52        52        43
 38        1        T-K-4
70.01     641.5     -2.24     0
96.8      0         0         0         0.        0.        0.        0.
0         0         0         0         0.        0.        0.        0.
0         0         0         0         0         1         0
 1         1         52        52        43
 39        1        T-L
70.01     641.5     -2.24     0
96.8      0         0         0         0.        0.        0.        0.
0         0         0         0         0.        0.        0.        0.
0         0         0         0         0         1         0
 1         1         52        52        43
 40        1        T-L-2
70.01     641.5     -2.24     0
96.8      0         0         0         0.        0.        0.        0.
0         0         0         0         0.        0.        0.        0.
0         0         0         0         0         1         0
 1         1         52        52        43
 41        1        T-L-3
68.14     641.5     -2.18     0
96.8      0         0         0         0.        0.        0.        0.
0         0         0         0         0.        0.        0.        0.
0         0         0         0         0         1         0
 1         1         52        52        43
 42        1        T-M
22.01     641.5     -0.7      0
96.8      0         0         0         0.        0.        0.        0.
0         0         0         0         0.        0.        0.        0.
0         0         0         0         0         1         0
 1         1         52        52        43
 43        1        T-M-2
70.01     641.5     -2.24     0
96.8      0         0         0         0.        0.        0.        0.
0         0         0         0         0.        0.        0.        0.
0         0         0         0         0         1         0
 1         1         52        52        43
 44        1        T-M-3
70.01     641.5     -2.24     0
96.8      0         0         0         0.        0.        0.        0.
0         0         0         0         0.        0.        0.        0.
0         0         0         0         0         1         0
 1         1         52        52        43
 45        1        T-M-4
78.8      641.5     -2.52     0
96.8      0         0         0         0.        0.        0.        0.
0         0         0         0         0.        0.        0.        0.
0         0         0         0         0         1         0
 1         1         52        52        43
 46        9        T-N
70.01     396.8     -2.24     0
86        0         0         0         0.        0.        0.        0.
0         0         0         0         0.        0.        0.        0.
0         0         0         0         0         1         0
 1         1         52        52        43
Full_Fire                                34        1
350287086 0         0         18000     2000      672
 1         0         3
41        32
 2         0         1
 3         0         1
 4         0         1
 5         0         1
 6         0         1
 7         0         1
 8         0         1
 9         0         1
 10        0         1
 11        0         1
 12        0         1
 13        0         1
 14        0         1
 15        0         1
 16        0         1
 17        0         1
 18        0         1
 19        0         1
 20        0         1
 21        0         1
 22        0         1
 23        0         1
 24        0         1
 25        0         1
 26        0         1
 27        0         1
 28        0         1
 29        0         1
 30        0         1
 31        0         1
 32        0         1
 33        0         1
 34        0         1
 35        0         1
 36        0         1
 37        0         1
 38        0         1
 39        0         1
 40        0         1
 41        0         1
 42        0         1
 43        0         1
 44        0         1
 45        0         1
 46        0         3
41        32
27142.85  1         -1801     0         3600
182223.68 0.83      6732      0         3600
10        1
 100       10        10        0         1         1
5         1000      1         1
